25 50
0 37 34
1 16 28
2 36 44
3 43 37
4 22 50
5 28 13
6 10 41
7 27 14
8 27 41
9 37 23
10 19 12
11 30 18
12 31 33
13 24 13
14 36 18
15 3 30
16 9 23
17 18 20
18 7 44
19 43 12
20 24 30
21 20 22
22 38 35
23 25 49
24 21 16
